53
2 49 75 
2 117 26 
2 71 85 
2 92 78 
2 43 5 
2 103 107 
2 89 2 
2 74 27 
2 25 38 
2 59 115 
2 51 22 
2 20 116 
2 120 72 
2 112 88 
2 46 9 
2 119 90 
2 95 40 
2 34 68 
2 118 32 
2 61 106 
2 108 54 
2 47 36 
2 77 29 
2 62 84 
3 105 28 7 
2 16 10 
2 81 53 
3 80 63 1 
2 45 100 
2 73 60 
2 11 58 
3 37 91 18 
2 79 70 
1 94 
3 76 30 98 
2 99 114 
2 64 23 
2 31 82 
2 4 14 
3 101 97 110 
2 6 12 
2 65 111 
3 66 67 39 
3 33 87 19 
3 102 35 52 
3 8 13 41 
2 104 56 
3 50 3 109 
3 93 42 21 
2 86 113 
3 69 96 15 
3 55 24 57 
4 17 83 44 48 
